NAME = SAfile180,
TOURSIZE = 180,
LENGTH = 1950,
8,93,79,162,61,15,147,40,46,138,42,21,48,94,26,101,126,127,146,143,100,65,112,81,179,166,106,19,17,68,20,122,134,13,80,121,34,10,97,156,2,18,136,90,167,75,39,3,57,113,32,4,50,38,63,11,1,91,98,142,154,129,102,88,25,133,144,108,157,56,86,87,67,69,105,110,111,114,27,141,31,53,76,131,168,14,60,85,82,72,62,137,24,44,118,89,64,171,83,41,155,128,77,70,23,37,36,66,12,45,172,116,158,135,52,43,139,152,29,16,22,175,173,174,130,84,35,107,149,150,132,6,180,176,103,96,170,164,54,28,73,33,125,58,117,151,161,59,148,9,5,140,71,119,99,49,163,74,78,159,153,123,124,55,169,177,104,145,120,115,165,160,92,95,109,30,51,47,178,7